p cnf 10 50
-7 8 -10 0
6 -5 9 0
4 -6 -2 0
4 7 6 0
-3 -8 2 0
6 4 10 0
2 10 7 0
7 6 1 0
2 -10 -3 0
-9 3 -2 0
1 4 10 0
3 9 -5 0
9 -2 5 0
-8 5 10 0
-7 5 8 0
4 -6 8 0
-2 -6 -3 0
7 6 3 0
-10 9 -1 0
8 4 -5 0
5 7 2 0
2 3 -4 0
6 2 -10 0
3 -7 -2 0
8 -6 -3 0
-6 -8 -2 0
10 -3 -2 0
5 -4 -2 0
6 1 -7 0
-7 9 -3 0
7 4 2 0
4 9 -7 0
-4 -7 -6 0
-10 -4 -9 0
-7 5 8 0
-3 -8 2 0
-4 6 2 0
1 7 -8 0
-9 -6 7 0
-10 -8 -4 0
4 5 -9 0
-2 -3 5 0
-8 -2 -3 0
4 -5 -1 0
-10 -3 5 0
-1 6 3 0
-1 -7 -9 0
-2 8 1 0
-4 -9 7 0
5 -1 -7 0